c This is QMaxSAT 2017 based on 14.07
c This is Glucose 3.0
c This is MiniSat 2.2.0
c WARNING: for repeatability, setting FPU to use double precision
c card = mrwto, comp = 0, pmodel = 0, narr = 24, mct = 127, verb = 0
cr firstCPXsol 0 0 0
c top = 79249421
c |  Number of variables:    45000                                            |
c |  Number of clauses:      6037653                                          |
c |  Weight of hard clauses: 79249421                                         |
c |  Number of soft clauses: 523152                                           |
c |  Number of unit soft clauses: 0                                           |
c |  Maximum Cardinality (by unit): 2376636528   (0           )               |
c last restart ## conflicts  :  0 11045 
o 225103 | cpuTime 0.901041 s
c Sum of weights = 99026522
c A number of soft clauses remained = 21798
c MRWTO encoding for Pseudo-Boolean Constraints
c sizeMax=65536
c No.0 Divisor=12	generated by pow1
c No.1 Divisor=12	generated by pow1
c No.2 Divisor=12	generated by pow1
c No.3 Divisor=12	generated by pow1
c No.4 Divisor=12	generated by pow1
c p0= 12	p1= 12	p2= 12	p3= 12	p4= 12	
c number of digits = 6
c linkingVar[0].size = 12, linkingVar[1].size = 12, linkingVar[2].size = 12, linkingVar[3].size = 12, linkingVar[4].size = 11, linkingVar[5].size = 1, 
c Pseudo-Boolean Constraints: 830312 variables and 9102462 clauses
c Sum of weights = 99026522
c A number of soft clauses remained = 21798
c MRWTO encoding for Pseudo-Boolean Constraints
c sizeMax=65536
c No.0 Divisor=12	generated by pow1
c No.1 Divisor=12	generated by pow1
c No.2 Divisor=12	generated by pow1
c No.3 Divisor=12	generated by pow1
c No.4 Divisor=12	generated by pow1
c p0= 12	p1= 12	p2= 12	p3= 12	p4= 12	
c number of digits = 6
c linkingVar[0].size = 12, linkingVar[1].size = 12, linkingVar[2].size = 12, linkingVar[3].size = 12, linkingVar[4].size = 11, linkingVar[5].size = 1, 
c Pseudo-Boolean Constraints: 830312 variables and 9102462 clauses
c Sum of weights = 99026522
c A number of soft clauses remained = 21798
c MRWTO encoding for Pseudo-Boolean Constraints
c sizeMax=65536
c No.0 Divisor=12	generated by pow1
c No.1 Divisor=12	generated by pow1
c No.2 Divisor=12	generated by pow1
c No.3 Divisor=12	generated by pow1
c No.4 Divisor=12	generated by pow1
c p0= 12	p1= 12	p2= 12	p3= 12	p4= 12	
c number of digits = 6
c linkingVar[0].size = 12, linkingVar[1].size = 12, linkingVar[2].size = 12, linkingVar[3].size = 12, linkingVar[4].size = 11, linkingVar[5].size = 1, 
c Pseudo-Boolean Constraints: 830312 variables and 9102462 clauses
c Sum of weights = 99026522
c A number of soft clauses remained = 21798
c MRWTO encoding for Pseudo-Boolean Constraints
c sizeMax=65536
c No.0 Divisor=12	generated by pow1
c No.1 Divisor=12	generated by pow1
c No.2 Divisor=12	generated by pow1
c No.3 Divisor=12	generated by pow1
c No.4 Divisor=12	generated by pow1
c p0= 12	p1= 12	p2= 12	p3= 12	p4= 12	
c number of digits = 6
c linkingVar[0].size = 12, linkingVar[1].size = 12, linkingVar[2].size = 12, linkingVar[3].size = 12, linkingVar[4].size = 11, linkingVar[5].size = 1, 
c Pseudo-Boolean Constraints: 830312 variables and 9102462 clauses
c Sum of weights = 99026522
c A number of soft clauses remained = 21798
c MRWTO encoding for Pseudo-Boolean Constraints
c sizeMax=65536
c No.0 Divisor=12	generated by pow1
c No.1 Divisor=12	generated by pow1
c No.2 Divisor=12	generated by pow1
c No.3 Divisor=12	generated by pow1
c No.4 Divisor=12	generated by pow1
c p0= 12	p1= 12	p2= 12	p3= 12	p4= 12	
c number of digits = 6
c linkingVar[0].size = 12, linkingVar[1].size = 12, linkingVar[2].size = 12, linkingVar[3].size = 12, linkingVar[4].size = 11, linkingVar[5].size = 1, 
c Pseudo-Boolean Constraints: 830312 variables and 9102462 clauses
c Sum of weights = 99026522
c A number of soft clauses remained = 21798
c MRWTO encoding for Pseudo-Boolean Constraints
c sizeMax=65536
c No.0 Divisor=12	generated by pow1
c No.1 Divisor=12	generated by pow1
c No.2 Divisor=12	generated by pow1
c No.3 Divisor=12	generated by pow1
c No.4 Divisor=12	generated by pow1
c p0= 12	p1= 12	p2= 12	p3= 12	p4= 12	
c number of digits = 6
c linkingVar[0].size = 12, linkingVar[1].size = 12, linkingVar[2].size = 12, linkingVar[3].size = 12, linkingVar[4].size = 11, linkingVar[5].size = 1, 
c Pseudo-Boolean Constraints: 830312 variables and 9102462 clauses
c Sum of weights = 99026522
c A number of soft clauses remained = 21798
c MRWTO encoding for Pseudo-Boolean Constraints
c sizeMax=65536
c No.0 Divisor=12	generated by pow1
c No.1 Divisor=12	generated by pow1
c No.2 Divisor=12	generated by pow1
c No.3 Divisor=12	generated by pow1
c No.4 Divisor=12	generated by pow1
c p0= 12	p1= 12	p2= 12	p3= 12	p4= 12	
c number of digits = 6
c linkingVar[0].size = 12, linkingVar[1].size = 12, linkingVar[2].size = 12, linkingVar[3].size = 12, linkingVar[4].size = 11, linkingVar[5].size = 1, 
c Pseudo-Boolean Constraints: 830312 variables and 9102462 clauses
c Sum of weights = 99026522
c A number of soft clauses remained = 21798
c MRWTO encoding for Pseudo-Boolean Constraints
c sizeMax=65536
c No.0 Divisor=12	generated by pow1
c No.1 Divisor=12	generated by pow1
c No.2 Divisor=12	generated by pow1
c No.3 Divisor=12	generated by pow1
c No.4 Divisor=12	generated by pow1
c p0= 12	p1= 12	p2= 12	p3= 12	p4= 12	
c number of digits = 6
c linkingVar[0].size = 12, linkingVar[1].size = 12, linkingVar[2].size = 12, linkingVar[3].size = 12, linkingVar[4].size = 11, linkingVar[5].size = 1, 
c Pseudo-Boolean Constraints: 830312 variables and 9102462 clauses
c Sum of weights = 99026522
c A number of soft clauses remained = 21798
c MRWTO encoding for Pseudo-Boolean Constraints
c sizeMax=65536
c No.0 Divisor=12	generated by pow1
c No.1 Divisor=12	generated by pow1
c No.2 Divisor=12	generated by pow1
c No.3 Divisor=12	generated by pow1
c No.4 Divisor=12	generated by pow1
c p0= 12	p1= 12	p2= 12	p3= 12	p4= 12	
c number of digits = 6
c linkingVar[0].size = 12, linkingVar[1].size = 12, linkingVar[2].size = 12, linkingVar[3].size = 12, linkingVar[4].size = 11, linkingVar[5].size = 1, 
c Pseudo-Boolean Constraints: 830312 variables and 9102462 clauses
c Sum of weights = 99026522
c A number of soft clauses remained = 21798
c MRWTO encoding for Pseudo-Boolean Constraints
c sizeMax=65536
c No.0 Divisor=12	generated by pow1
c No.1 Divisor=12	generated by pow1
c No.2 Divisor=12	generated by pow1
c No.3 Divisor=12	generated by pow1
c No.4 Divisor=12	generated by pow1
c p0= 12	p1= 12	p2= 12	p3= 12	p4= 12	
c number of digits = 6
c linkingVar[0].size = 12, linkingVar[1].size = 12, linkingVar[2].size = 12, linkingVar[3].size = 12, linkingVar[4].size = 11, linkingVar[5].size = 1, 
c Pseudo-Boolean Constraints: 830312 variables and 9102462 clauses
c Sum of weights = 99026522
c A number of soft clauses remained = 21798
c MRWTO encoding for Pseudo-Boolean Constraints
c sizeMax=65536
c No.0 Divisor=12	generated by pow1
c No.1 Divisor=12	generated by pow1
c No.2 Divisor=12	generated by pow1
c No.3 Divisor=12	generated by pow1
c No.4 Divisor=12	generated by pow1
c p0= 12	p1= 12	p2= 12	p3= 12	p4= 12	
c number of digits = 6
c linkingVar[0].size = 12, linkingVar[1].size = 12, linkingVar[2].size = 12, linkingVar[3].size = 12, linkingVar[4].size = 11, linkingVar[5].size = 1, 
c Pseudo-Boolean Constraints: 830312 variables and 9102462 clauses
c Sum of weights = 99026522
c A number of soft clauses remained = 21798
c MRWTO encoding for Pseudo-Boolean Constraints
c sizeMax=65536
c No.0 Divisor=12	generated by pow1
c No.1 Divisor=12	generated by pow1
c No.2 Divisor=12	generated by pow1
c No.3 Divisor=12	generated by pow1
c No.4 Divisor=12	generated by pow1
c p0= 12	p1= 12	p2= 12	p3= 12	p4= 12	
c number of digits = 6
c linkingVar[0].size = 12, linkingVar[1].size = 12, linkingVar[2].size = 12, linkingVar[3].size = 12, linkingVar[4].size = 11, linkingVar[5].size = 1, 
c Pseudo-Boolean Constraints: 830312 variables and 9102462 clauses
c Sum of weights = 99026522
c A number of soft clauses remained = 21798
c MRWTO encoding for Pseudo-Boolean Constraints
c sizeMax=65536
c No.0 Divisor=12	generated by pow1
c No.1 Divisor=12	generated by pow1
c No.2 Divisor=12	generated by pow1
c No.3 Divisor=12	generated by pow1
c No.4 Divisor=12	generated by pow1
c p0= 12	p1= 12	p2= 12	p3= 12	p4= 12	
c number of digits = 6
c linkingVar[0].size = 12, linkingVar[1].size = 12, linkingVar[2].size = 12, linkingVar[3].size = 12, linkingVar[4].size = 11, linkingVar[5].size = 1, 
c Pseudo-Boolean Constraints: 830312 variables and 9102462 clauses
c Sum of weights = 99026522
c A number of soft clauses remained = 21798
c MRWTO encoding for Pseudo-Boolean Constraints
c sizeMax=65536
c No.0 Divisor=12	generated by pow1
c No.1 Divisor=12	generated by pow1
c No.2 Divisor=12	generated by pow1
c No.3 Divisor=12	generated by pow1
c No.4 Divisor=12	generated by pow1
c p0= 12	p1= 12	p2= 12	p3= 12	p4= 12	
c number of digits = 6
c linkingVar[0].size = 12, linkingVar[1].size = 12, linkingVar[2].size = 12, linkingVar[3].size = 12, linkingVar[4].size = 11, linkingVar[5].size = 1, 
c Pseudo-Boolean Constraints: 830312 variables and 9102462 clauses
c Sum of weights = 99026522
c A number of soft clauses remained = 21798
c MRWTO encoding for Pseudo-Boolean Constraints
c sizeMax=65536
c No.0 Divisor=12	generated by pow1
c No.1 Divisor=12	generated by pow1
c No.2 Divisor=12	generated by pow1
c No.3 Divisor=12	generated by pow1
c No.4 Divisor=12	generated by pow1
c p0= 12	p1= 12	p2= 12	p3= 12	p4= 12	
c number of digits = 6
c linkingVar[0].size = 12, linkingVar[1].size = 12, linkingVar[2].size = 12, linkingVar[3].size = 12, linkingVar[4].size = 11, linkingVar[5].size = 1, 
c Pseudo-Boolean Constraints: 830312 variables and 9102462 clauses
c Sum of weights = 99026522
c A number of soft clauses remained = 21798
c MRWTO encoding for Pseudo-Boolean Constraints
c sizeMax=65536
c No.0 Divisor=12	generated by pow1
c No.1 Divisor=12	generated by pow1
c No.2 Divisor=12	generated by pow1
c No.3 Divisor=12	generated by pow1
c No.4 Divisor=12	generated by pow1
c p0= 12	p1= 12	p2= 12	p3= 12	p4= 12	
c number of digits = 6
c linkingVar[0].size = 12, linkingVar[1].size = 12, linkingVar[2].size = 12, linkingVar[3].size = 12, linkingVar[4].size = 11, linkingVar[5].size = 1, 
c Pseudo-Boolean Constraints: 830312 variables and 9102462 clauses
c Sum of weights = 99026522
c A number of soft clauses remained = 21798
c MRWTO encoding for Pseudo-Boolean Constraints
c sizeMax=65536
c No.0 Divisor=12	generated by pow1
c No.1 Divisor=12	generated by pow1
c No.2 Divisor=12	generated by pow1
c No.3 Divisor=12	generated by pow1
c No.4 Divisor=12	generated by pow1
c p0= 12	p1= 12	p2= 12	p3= 12	p4= 12	
c number of digits = 6
c linkingVar[0].size = 12, linkingVar[1].size = 12, linkingVar[2].size = 12, linkingVar[3].size = 12, linkingVar[4].size = 11, linkingVar[5].size = 1, 
c Pseudo-Boolean Constraints: 830312 variables and 9102462 clauses
c Sum of weights = 99026522
c A number of soft clauses remained = 21798
c MRWTO encoding for Pseudo-Boolean Constraints
c sizeMax=65536
c No.0 Divisor=12	generated by pow1
c No.1 Divisor=12	generated by pow1
c No.2 Divisor=12	generated by pow1
c No.3 Divisor=12	generated by pow1
c No.4 Divisor=12	generated by pow1
c p0= 12	p1= 12	p2= 12	p3= 12	p4= 12	
c number of digits = 6
c linkingVar[0].size = 12, linkingVar[1].size = 12, linkingVar[2].size = 12, linkingVar[3].size = 12, linkingVar[4].size = 11, linkingVar[5].size = 1, 
c Pseudo-Boolean Constraints: 830312 variables and 9102462 clauses
c Sum of weights = 99026522
c A number of soft clauses remained = 21798
c MRWTO encoding for Pseudo-Boolean Constraints
c sizeMax=65536
c No.0 Divisor=12	generated by pow1
c No.1 Divisor=12	generated by pow1
c No.2 Divisor=12	generated by pow1
c No.3 Divisor=12	generated by pow1
c No.4 Divisor=12	generated by pow1
c p0= 12	p1= 12	p2= 12	p3= 12	p4= 12	
c number of digits = 6
c linkingVar[0].size = 12, linkingVar[1].size = 12, linkingVar[2].size = 12, linkingVar[3].size = 12, linkingVar[4].size = 11, linkingVar[5].size = 1, 
c Pseudo-Boolean Constraints: 830312 variables and 9102462 clauses
c Sum of weights = 99026522
c A number of soft clauses remained = 21798
c MRWTO encoding for Pseudo-Boolean Constraints
c sizeMax=65536
c No.0 Divisor=12	generated by pow1
c No.1 Divisor=12	generated by pow1
c No.2 Divisor=12	generated by pow1
c No.3 Divisor=12	generated by pow1
c No.4 Divisor=12	generated by pow1
c p0= 12	p1= 12	p2= 12	p3= 12	p4= 12	
c number of digits = 6
c linkingVar[0].size = 12, linkingVar[1].size = 12, linkingVar[2].size = 12, linkingVar[3].size = 12, linkingVar[4].size = 11, linkingVar[5].size = 1, 
c Pseudo-Boolean Constraints: 830312 variables and 9102462 clauses
c Sum of weights = 99026522
c A number of soft clauses remained = 21798
c MRWTO encoding for Pseudo-Boolean Constraints
c sizeMax=65536
c No.0 Divisor=12	generated by pow1
c No.1 Divisor=12	generated by pow1
c No.2 Divisor=12	generated by pow1
c No.3 Divisor=12	generated by pow1
c No.4 Divisor=12	generated by pow1
c p0= 12	p1= 12	p2= 12	p3= 12	p4= 12	
c number of digits = 6
c linkingVar[0].size = 12, linkingVar[1].size = 12, linkingVar[2].size = 12, linkingVar[3].size = 12, linkingVar[4].size = 11, linkingVar[5].size = 1, 
c Pseudo-Boolean Constraints: 830312 variables and 9102462 clauses
c Sum of weights = 99026522
c A number of soft clauses remained = 21798
c MRWTO encoding for Pseudo-Boolean Constraints
c sizeMax=65536
c No.0 Divisor=12	generated by pow1
c No.1 Divisor=12	generated by pow1
c No.2 Divisor=12	generated by pow1
c No.3 Divisor=12	generated by pow1
c No.4 Divisor=12	generated by pow1
c p0= 12	p1= 12	p2= 12	p3= 12	p4= 12	
c number of digits = 6
c linkingVar[0].size = 12, linkingVar[1].size = 12, linkingVar[2].size = 12, linkingVar[3].size = 12, linkingVar[4].size = 11, linkingVar[5].size = 1, 
c Pseudo-Boolean Constraints: 830312 variables and 9102462 clauses
c Sum of weights = 99026522
c A number of soft clauses remained = 21798
c MRWTO encoding for Pseudo-Boolean Constraints
c sizeMax=65536
c No.0 Divisor=12	generated by pow1
c No.1 Divisor=12	generated by pow1
c No.2 Divisor=12	generated by pow1
c No.3 Divisor=12	generated by pow1
c No.4 Divisor=12	generated by pow1
c p0= 12	p1= 12	p2= 12	p3= 12	p4= 12	
c number of digits = 6
c linkingVar[0].size = 12, linkingVar[1].size = 12, linkingVar[2].size = 12, linkingVar[3].size = 12, linkingVar[4].size = 11, linkingVar[5].size = 1, 
c Pseudo-Boolean Constraints: 830312 variables and 9102462 clauses
c Sum of weights = 99026522
c A number of soft clauses remained = 21798
c MRWTO encoding for Pseudo-Boolean Constraints
c sizeMax=65536
c No.0 Divisor=12	generated by pow1
c No.1 Divisor=12	generated by pow1
c No.2 Divisor=12	generated by pow1
c No.3 Divisor=12	generated by pow1
c No.4 Divisor=12	generated by pow1
c p0= 12	p1= 12	p2= 12	p3= 12	p4= 12	
c number of digits = 6
c linkingVar[0].size = 12, linkingVar[1].size = 12, linkingVar[2].size = 12, linkingVar[3].size = 12, linkingVar[4].size = 11, linkingVar[5].size = 1, 
c Pseudo-Boolean Constraints: 830312 variables and 9102462 clauses
c last restart ## conflicts  :  384 146376 
o 109929 | cpuTime 315.703 s
c last restart ## conflicts  :  1118 522523 
o 92168 | cpuTime 720.762 s
c last restart ## conflicts  :  977 527606 
o 70310 | cpuTime 1519.26 s
s UNKNOWN
c Search is stopped by a limit (maybe time-limit)
cr positiVarArr: [ | 111(1->88) | 289(1->116) | 395(1->72) | 580(1->107) | 656(1->33) | 823(1->50) | 966(1->43) | 1196(1->123) | 1322(1->99) | 1486(1->113) | 1547(1->24) | 1676(1->3) | 1950(1->127) | 1989(1->16) | 2214(1->91) | 2299(1->26) | 2504(1->81) | 2651(1->78) | 2754(1->31) | 2997(1->124) | 3040(1->17) | 3258(1->85) | 3417(1->94) | 3591(1->118) | 3605(2->1) | 3809(3->36) | 3979(4->56) | 4114(5->41) | 4203(6->1) | 4439(7->66) | 4594(8->71) | 4679(9->6) | 4945(10->122) | 5087(11->114) | 5228(12->105) | 5280(13->7) | 5433(14->10) | 5681(15->108) | 5721(16->1) | 5910(17->37) | 6022(18->1) | 6191(19->18) | 6402(20->79) | 6477(21->4) | 6611(22->1) | 6856(23->83) | 6910(24->1) | 7054(25->1) | 7250(26->27) | 7459(27->86) | 7552(28->29) | 7731(29->58) | 7935(30->112) | 8041(31->68) | 8157(32->34) | 8259(33->1) | 8519(34->96) | 8601(35->28) | 8782(36->59) | 8975(37->102) | 9085(38->62) | 9157(39->1) | 9306(40->1) | 9522(41->49) | 9614(42->1) | 9860(43->87) | 9942(44->19) | 10176(45->103) | 10312(46->89) | 10417(47->44) | 10634(48->111) | 10793(49->120) | 10874(50->51) | 11028(51->55) | 11145(52->22) | 11268(53->1) | 11475(54->52) | 11613(55->40) | 11827(56->104) | 11994(57->121) | 12037(58->14) | 12188(59->15) | 12370(60->47) | 12563(61->90) | 12696(62->73) | 12811(63->38) | 13033(64->110) | 13086(65->13) | 13220(66->1) | 13374(67->1) | 13620(68->97) | 13788(69->115) | 13918(70->95) | 14037(71->64) | 14168(72->45) | 14285(73->12) | 14490(74->67) | 14642(75->69) | 14776(76->53) | 14971(77->98) | 15071(78->48) | 15198(79->25) | 15355(80->32) | 15533(81->60) | 15616(82->1) | 15765(83->1) | 15912(84->1) | 16108(85->35) | 16244(86->21) | 16447(87->74) | 16553(88->30) | 16765(89->92) | 16940(90->117) | 16975(91->2) | 17200(92->77) | 17353(93->80) | 17469(94->46) | 17596(95->23) | 17832(96->109) | 17930(97->57) | 18034(98->11) | 18234(99->61) | 18429(100->106) | 18549(101->76) | 18742(102->119) | 18843(103->70) | 18908(104->1) | 19093(105->20) | 19213(106->1) | 19466(107->93) | 19562(108->39) | 19748(109->75) | 19923(110->100) | 19952(111->1) | 20186(112->63) | 20251(113->1) | 20417(114->1) | 20569(115->1) | 20728(116->5) | 20873(117->1) | 21065(118->42) | 21181(119->8) | 21407(120->84) | 21527(121->54) | 21749(122->126) | 21898(123->125) | 22005(124->82) | 22138(125->65) | 22324(126->101) | 22382(127->9) | ]
cr the 1-th chain: [ 1->88->30->112->63->38->62->73->12->105->20->79->25->1 ] (#non-depot=12) {#cumul.=13}
cr the 2-th chain: [ 1->116->5->41->49->120->84->1 ] (#non-depot=6) {#cumul.=19}
cr the 3-th chain: [ 1->72->45->103->70->95->23->83->1 ] (#non-depot=7) {#cumul.=26}
cr the 4-th chain: [ 1->107->93->80->32->34->96->109->75->69->115->1 ] (#non-depot=10) {#cumul.=36}
cr the 5-th chain: [ 1->33->1 ] (#non-depot=1) {#cumul.=37}
cr the 6-th chain: [ 1->50->51->55->40->1 ] (#non-depot=4) {#cumul.=41}
cr the 7-th chain: [ 1->43->87->74->67->1 ] (#non-depot=4) {#cumul.=45}
cr the 8-th chain: [ 1->123->125->65->13->7->66->1 ] (#non-depot=6) {#cumul.=51}
cr the 9-th chain: [ 1->99->61->90->117->1 ] (#non-depot=4) {#cumul.=55}
cr the 10-th chain: [ 1->113->1 ] (#non-depot=1) {#cumul.=56}
cr the 11-th chain: [ 1->24->1 ] (#non-depot=1) {#cumul.=57}
cr the 12-th chain: [ 1->3->36->59->15->108->39->1 ] (#non-depot=6) {#cumul.=63}
cr the 13-th chain: [ 1->127->9->6->1 ] (#non-depot=3) {#cumul.=66}
cr the 14-th chain: [ 1->16->1 ] (#non-depot=1) {#cumul.=67}
cr the 15-th chain: [ 1->91->2->1 ] (#non-depot=2) {#cumul.=69}
cr the 16-th chain: [ 1->26->27->86->21->4->56->104->1 ] (#non-depot=7) {#cumul.=76}
cr the 17-th chain: [ 1->81->60->47->44->19->18->1 ] (#non-depot=6) {#cumul.=82}
cr the 18-th chain: [ 1->78->48->111->1 ] (#non-depot=3) {#cumul.=85}
cr the 19-th chain: [ 1->31->68->97->57->121->54->52->22->1 ] (#non-depot=8) {#cumul.=93}
cr the 20-th chain: [ 1->124->82->1 ] (#non-depot=2) {#cumul.=95}
cr the 21-th chain: [ 1->17->37->102->119->8->71->64->110->100->106->1 ] (#non-depot=10) {#cumul.=105}
cr the 22-th chain: [ 1->85->35->28->29->58->14->10->122->126->101->76->53->1 ] (#non-depot=12) {#cumul.=117}
cr the 23-th chain: [ 1->94->46->89->92->77->98->11->114->1 ] (#non-depot=8) {#cumul.=125}
cr the 24-th chain: [ 1->118->42->1 ] (#non-depot=2) {#cumul.=127}
c Latest Answer = 0 by 4 loops
c restarts              : 1349
c conflicts             : 229337         (64 /sec)
c decisions             : 140436236      (0.00 % random) (39005 /sec)
c propagations          : 24770064272    (6879610 /sec)
c conflict literals     : 15187600       (6.30 % deleted)
c Memory used           : 15054.00 MB
c CPU time              : 3600.5 s
